50
2101

537 961
631 102
15 342
38 55
625 251
623 910
313 31
363 790
697 957
638 865
387 987
768 526
169 423
325 124
414 434
257 728
827 858
622 525
760 728
321 813
460 851
56 592
30 875
178 617
570 793
256 146
59 978
281 233
804 245
394 818
278 328
813 791
773 855
722 2
488 612
80 387
846 610
241 929
790 246
936 619
81 730
597 157
930 357
15 67
850 671
39 726
833 201
381 465
211 983
789 947
